robust/generate/spp_dkp_Lefebvre_et_al_2026/src/shortest_path_6_8.kp
50
114

[2.35 1.08 1.21 1.88 1.79 4.73 1.94 3.67 3.61 1.47 1.65 1.67 0.69 4.62 4.32 2.66 1.49 4.22 3.2 1.86 2.41 2.49 4.41 2.71]

[88 86 100 35 74 76 79 36 76 78 50 1 89 14 60 36 89 79 14 15 12 19 43 11]
