robust/generate/spp_dkp_Lefebvre_et_al_2026/src/shortest_path_6_8.lp
\ Model sp_6_8
\ LP format - for model browsing. Use MPS format to capture full model detail.
\ Signature: 0x1a3fed327f855427
Minimize
  49.98 y[0,1] + 62.77 y[0,2] + 64.07 y[0,3] + 31.89 y[0,4] + 7.81 y[0,5]
   + 49.98 y[1,0] + 16.55 y[1,2] + 22.02 y[1,3] + 46.53 y[1,5]
   + 62.77 y[2,0] + 16.55 y[2,1] + 30.68 y[2,3] + 60.61 y[2,5]
   + 64.07 y[3,0] + 22.02 y[3,1] + 30.68 y[3,2] + 58.55 y[3,5]
   + 31.89 y[4,0] + 39.7 y[4,5] + 7.81 y[5,0] + 46.53 y[5,1] + 60.61 y[5,2]
   + 58.55 y[5,3] + 39.7 y[5,4] + 4.998 r[0,1] + 6.277 r[0,2]
   + 6.407 r[0,3] + 3.189 r[0,4] + 0.781 r[0,5] + 4.998 r[1,0]
   + 1.655 r[1,2] + 2.202 r[1,3] + 4.653 r[1,5] + 6.277 r[2,0]
   + 1.655 r[2,1] + 3.068 r[2,3] + 6.061 r[2,5] + 6.407 r[3,0]
   + 2.202 r[3,1] + 3.068 r[3,2] + 5.855 r[3,5] + 3.189 r[4,0]
   + 3.97 r[4,5] + 0.781 r[5,0] + 4.653 r[5,1] + 6.061 r[5,2]
   + 5.855 r[5,3] + 3.97 r[5,4]
Subject To
 flow_cons_inner_nodes[0]: - y[0,1] - y[0,2] - y[0,3] - y[0,4] - y[0,5]
   + y[1,0] + y[2,0] + y[3,0] + y[4,0] + y[5,0] = 0
 flow_cons_inner_nodes[1]: y[0,1] - y[1,0] - y[1,2] - y[1,3] - y[1,5]
   + y[2,1] + y[3,1] + y[5,1] = 0
 flow_cons_inner_nodes[2]: y[0,2] + y[1,2] - y[2,0] - y[2,1] - y[2,3]
   - y[2,5] + y[3,2] + y[5,2] = 0
 flow_cons_inner_nodes[5]: y[0,5] + y[1,5] + y[2,5] + y[3,5] + y[4,5]
   - y[5,0] - y[5,1] - y[5,2] - y[5,3] - y[5,4] = 0
 flow_cons_source: - y[0,3] - y[1,3] - y[2,3] + y[3,0] + y[3,1] + y[3,2]
   + y[3,5] - y[5,3] = 1
 flow_cons_target: y[0,4] - y[4,0] - y[4,5] + y[5,4] = 1
 primal_lower: - 2.35 y[0,1] - 1.08 y[0,2] - 1.21 y[0,3] - 1.88 y[0,4]
   - 1.79 y[0,5] - 4.73 y[1,0] - 1.94 y[1,2] - 3.67 y[1,3] - 3.61 y[1,5]
   - 1.47 y[2,0] - 1.65 y[2,1] - 1.67 y[2,3] - 0.69 y[2,5] - 4.62 y[3,0]
   - 4.32 y[3,1] - 2.66 y[3,2] - 1.49 y[3,5] - 4.22 y[4,0] - 3.2 y[4,5]
   - 1.86 y[5,0] - 2.41 y[5,1] - 2.49 y[5,2] - 4.41 y[5,3] - 2.71 y[5,4]
   + 88 u[0,1] + 86 u[0,2] + 100 u[0,3] + 35 u[0,4] + 74 u[0,5] + 76 u[1,0]
   + 79 u[1,2] + 36 u[1,3] + 76 u[1,5] + 78 u[2,0] + 50 u[2,1] + u[2,3]
   + 89 u[2,5] + 14 u[3,0] + 60 u[3,1] + 36 u[3,2] + 89 u[3,5] + 79 u[4,0]
   + 14 u[4,5] + 15 u[5,0] + 12 u[5,1] + 19 u[5,2] + 43 u[5,3] + 11 u[5,4]
   <= 114
 mccormick1[0,1]: - u[0,1] + r[0,1] <= 0
 mccormick1[0,2]: - u[0,2] + r[0,2] <= 0
 mccormick1[0,3]: - u[0,3] + r[0,3] <= 0
 mccormick1[0,4]: - u[0,4] + r[0,4] <= 0
 mccormick1[0,5]: - u[0,5] + r[0,5] <= 0
 mccormick1[1,0]: - u[1,0] + r[1,0] <= 0
 mccormick1[1,2]: - u[1,2] + r[1,2] <= 0
 mccormick1[1,3]: - u[1,3] + r[1,3] <= 0
 mccormick1[1,5]: - u[1,5] + r[1,5] <= 0
 mccormick1[2,0]: - u[2,0] + r[2,0] <= 0
 mccormick1[2,1]: - u[2,1] + r[2,1] <= 0
 mccormick1[2,3]: - u[2,3] + r[2,3] <= 0
 mccormick1[2,5]: - u[2,5] + r[2,5] <= 0
 mccormick1[3,0]: - u[3,0] + r[3,0] <= 0
 mccormick1[3,1]: - u[3,1] + r[3,1] <= 0
 mccormick1[3,2]: - u[3,2] + r[3,2] <= 0
 mccormick1[3,5]: - u[3,5] + r[3,5] <= 0
 mccormick1[4,0]: - u[4,0] + r[4,0] <= 0
 mccormick1[4,5]: - u[4,5] + r[4,5] <= 0
 mccormick1[5,0]: - u[5,0] + r[5,0] <= 0
 mccormick1[5,1]: - u[5,1] + r[5,1] <= 0
 mccormick1[5,2]: - u[5,2] + r[5,2] <= 0
 mccormick1[5,3]: - u[5,3] + r[5,3] <= 0
 mccormick1[5,4]: - u[5,4] + r[5,4] <= 0
 mccormick2[0,1]: - y[0,1] + r[0,1] <= 0
 mccormick2[0,2]: - y[0,2] + r[0,2] <= 0
 mccormick2[0,3]: - y[0,3] + r[0,3] <= 0
 mccormick2[0,4]: - y[0,4] + r[0,4] <= 0
 mccormick2[0,5]: - y[0,5] + r[0,5] <= 0
 mccormick2[1,0]: - y[1,0] + r[1,0] <= 0
 mccormick2[1,2]: - y[1,2] + r[1,2] <= 0
 mccormick2[1,3]: - y[1,3] + r[1,3] <= 0
 mccormick2[1,5]: - y[1,5] + r[1,5] <= 0
 mccormick2[2,0]: - y[2,0] + r[2,0] <= 0
 mccormick2[2,1]: - y[2,1] + r[2,1] <= 0
 mccormick2[2,3]: - y[2,3] + r[2,3] <= 0
 mccormick2[2,5]: - y[2,5] + r[2,5] <= 0
 mccormick2[3,0]: - y[3,0] + r[3,0] <= 0
 mccormick2[3,1]: - y[3,1] + r[3,1] <= 0
 mccormick2[3,2]: - y[3,2] + r[3,2] <= 0
 mccormick2[3,5]: - y[3,5] + r[3,5] <= 0
 mccormick2[4,0]: - y[4,0] + r[4,0] <= 0
 mccormick2[4,5]: - y[4,5] + r[4,5] <= 0
 mccormick2[5,0]: - y[5,0] + r[5,0] <= 0
 mccormick2[5,1]: - y[5,1] + r[5,1] <= 0
 mccormick2[5,2]: - y[5,2] + r[5,2] <= 0
 mccormick2[5,3]: - y[5,3] + r[5,3] <= 0
 mccormick2[5,4]: - y[5,4] + r[5,4] <= 0
 mccormick3[0,1]: - y[0,1] - u[0,1] + r[0,1] >= -1
 mccormick3[0,2]: - y[0,2] - u[0,2] + r[0,2] >= -1
 mccormick3[0,3]: - y[0,3] - u[0,3] + r[0,3] >= -1
 mccormick3[0,4]: - y[0,4] - u[0,4] + r[0,4] >= -1
 mccormick3[0,5]: - y[0,5] - u[0,5] + r[0,5] >= -1
 mccormick3[1,0]: - y[1,0] - u[1,0] + r[1,0] >= -1
 mccormick3[1,2]: - y[1,2] - u[1,2] + r[1,2] >= -1
 mccormick3[1,3]: - y[1,3] - u[1,3] + r[1,3] >= -1
 mccormick3[1,5]: - y[1,5] - u[1,5] + r[1,5] >= -1
 mccormick3[2,0]: - y[2,0] - u[2,0] + r[2,0] >= -1
 mccormick3[2,1]: - y[2,1] - u[2,1] + r[2,1] >= -1
 mccormick3[2,3]: - y[2,3] - u[2,3] + r[2,3] >= -1
 mccormick3[2,5]: - y[2,5] - u[2,5] + r[2,5] >= -1
 mccormick3[3,0]: - y[3,0] - u[3,0] + r[3,0] >= -1
 mccormick3[3,1]: - y[3,1] - u[3,1] + r[3,1] >= -1
 mccormick3[3,2]: - y[3,2] - u[3,2] + r[3,2] >= -1
 mccormick3[3,5]: - y[3,5] - u[3,5] + r[3,5] >= -1
 mccormick3[4,0]: - y[4,0] - u[4,0] + r[4,0] >= -1
 mccormick3[4,5]: - y[4,5] - u[4,5] + r[4,5] >= -1
 mccormick3[5,0]: - y[5,0] - u[5,0] + r[5,0] >= -1
 mccormick3[5,1]: - y[5,1] - u[5,1] + r[5,1] >= -1
 mccormick3[5,2]: - y[5,2] - u[5,2] + r[5,2] >= -1
 mccormick3[5,3]: - y[5,3] - u[5,3] + r[5,3] >= -1
 mccormick3[5,4]: - y[5,4] - u[5,4] + r[5,4] >= -1
Bounds
Binaries
 y[0,1] y[0,2] y[0,3] y[0,4] y[0,5] y[1,0] y[1,2] y[1,3] y[1,5] y[2,0]
 y[2,1] y[2,3] y[2,5] y[3,0] y[3,1] y[3,2] y[3,5] y[4,0] y[4,5] y[5,0]
 y[5,1] y[5,2] y[5,3] y[5,4] u[0,1] u[0,2] u[0,3] u[0,4] u[0,5] u[1,0]
 u[1,2] u[1,3] u[1,5] u[2,0] u[2,1] u[2,3] u[2,5] u[3,0] u[3,1] u[3,2]
 u[3,5] u[4,0] u[4,5] u[5,0] u[5,1] u[5,2] u[5,3] u[5,4] r[0,1] r[0,2]
 r[0,3] r[0,4] r[0,5] r[1,0] r[1,2] r[1,3] r[1,5] r[2,0] r[2,1] r[2,3]
 r[2,5] r[3,0] r[3,1] r[3,2] r[3,5] r[4,0] r[4,5] r[5,0] r[5,1] r[5,2]
 r[5,3] r[5,4]
End
